(set-logic HORN)
(declare-fun state (Int Int Int Bool Int Int Int Int (Array Int Int) (Array Int Int) Int Int (Array Int Int) (Array Int Int)) Bool)
(assert (forall ((|.x.14| Int) (|@nd_int_0_0| Int) (|main@%_3_0_0| Int) (|main@%_5_0_0| Bool) (|main@%_6_0_0| Int) (|main@%_7_0_0| Int) (|@nd_0_0| Int) (|main@%.0.i1_0_0| Int) (|main@%shadow.mem.0_0_0| (Array Int Int)) (|main@%shadow.mem1.0_0_0| (Array Int Int)) (|main@%_18_0| Int) (|main@%_10_0_0| Int) (|main@%shadow.mem.1_1| (Array Int Int)) (|main@%shadow.mem1.1_1| (Array Int Int)) (|.x.16| Int) (|.x.17| Int) (|main@%.0.i1_2| Int) (|.x.15| Int) (|main@%_3_1| Int) (|main@%_7_1| Int) (|main@%_6_1| Int) (|main@%_5_1| Bool) (|main@%shadow.mem.0_2| (Array Int Int)) (|main@%shadow.mem1.0_2| (Array Int Int)) (|.xtv.1| Int) (|.xtv.2| Int) (|.xtv.3| (Array Int Int)) (|.xtv.4| (Array Int Int))) (=> (= .x.14 0) (state |.x.14| |@nd_int_0_0| |main@%_3_0_0| |main@%_5_0_0| |main@%_6_0_0| |main@%_7_0_0| |@nd_0_0| |main@%.0.i1_0_0| |main@%shadow.mem.0_0_0| |main@%shadow.mem1.0_0_0| |main@%_18_0| |main@%_10_0_0| |main@%shadow.mem.1_1| |main@%shadow.mem1.1_1|))))
(assert (forall ((|.x.14| Int) (|@nd_int_0_0| Int) (|main@%_3_0_0| Int) (|main@%_5_0_0| Bool) (|main@%_6_0_0| Int) (|main@%_7_0_0| Int) (|@nd_0_0| Int) (|main@%.0.i1_0_0| Int) (|main@%shadow.mem.0_0_0| (Array Int Int)) (|main@%shadow.mem1.0_0_0| (Array Int Int)) (|main@%_18_0| Int) (|main@%_10_0_0| Int) (|main@%shadow.mem.1_1| (Array Int Int)) (|main@%shadow.mem1.1_1| (Array Int Int)) (|.x.16| Int) (|.x.17| Int) (|main@%.0.i1_2| Int) (|.x.15| Int) (|main@%_3_1| Int) (|main@%_7_1| Int) (|main@%_6_1| Int) (|main@%_5_1| Bool) (|main@%shadow.mem.0_2| (Array Int Int)) (|main@%shadow.mem1.0_2| (Array Int Int)) (|.xtv.1| Int) (|.xtv.2| Int) (|.xtv.3| (Array Int Int)) (|.xtv.4| (Array Int Int))) (=> (and (state |.x.14| |@nd_int_0_0| |main@%_3_0_0| |main@%_5_0_0| |main@%_6_0_0| |main@%_7_0_0| |@nd_0_0| |main@%.0.i1_0_0| |main@%shadow.mem.0_0_0| |main@%shadow.mem1.0_0_0| |main@%_18_0| |main@%_10_0_0| |main@%shadow.mem.1_1| |main@%shadow.mem1.1_1|) (let ((.def_35 (= .x.15 1))) (let ((.def_50 (<= main@%_7_1 0))) (let ((.def_54 (<= main@%_6_1 0))) (let ((.def_60 (not (<= main@%_18_0 (- 1))))) (let ((.def_67 (= .x.15 2))) (let ((.def_69 (= main@%.0.i1_0_0 main@%.0.i1_2))) (let ((.def_72 (= main@%shadow.mem.0_0_0 main@%shadow.mem.0_2))) (let ((.def_75 (= main@%shadow.mem1.0_0_0 main@%shadow.mem1.0_2))) (let ((.def_99 (<= (+ main@%_3_0_0 (* (- 1) main@%.0.i1_0_0)) 1))) (let ((.def_103 (<= main@%_7_0_0 0))) (let ((.def_104 (or (not (<= (+ main@%_7_0_0 main@%.0.i1_0_0) 0)) .def_103))) (let ((.def_108 (<= main@%_6_0_0 0))) (let ((.def_109 (or (not (<= (+ main@%_6_0_0 main@%.0.i1_0_0) 0)) .def_108))) (let ((.def_111 (not .def_108))) (let ((.def_113 (not .def_103))) (let ((.def_119 (= .x.14 1))) (let ((.def_121 (= main@%_3_0_0 main@%_3_1))) (let ((.def_123 (= main@%_5_0_0 main@%_5_1))) (let ((.def_125 (= main@%_6_0_0 main@%_6_1))) (let ((.def_127 (= main@%_7_0_0 main@%_7_1))) (and (and (= @nd_int_0_0 .x.16) (= @nd_0_0 .x.17)) (or (or (and (or (and (= main@%.0.i1_2 0) .def_35) (and (and (and (and (and (not (<= main@%_3_1 main@%_18_0)) (and (not (= (select main@%shadow.mem1.1_1 (+ main@%_18_0 main@%_7_1)) (select main@%shadow.mem.1_1 (+ main@%_18_0 main@%_6_1)))) (and (or (not (<= (+ main@%_18_0 main@%_7_1) 0)) .def_50) (and (or (not (<= (+ main@%_18_0 main@%_6_1) 0)) .def_54) (and (not main@%_5_1) .def_60))))) .def_67) .def_69) .def_72) .def_75)) (and (= main@%_5_1 (not (<= main@%_3_1 0))) (and (= .x.14 0) (and (not .def_50) (and main@%_5_1 (not .def_54)))))) (and (and (and (and (and (and (= (+ main@%.0.i1_0_0 (* (- 1) main@%.0.i1_2)) (- 1)) (and (= main@%shadow.mem.0_2 (store main@%shadow.mem.0_0_0 (+ main@%_6_0_0 main@%.0.i1_0_0) main@%_18_0)) (and (= main@%shadow.mem1.0_2 (store main@%shadow.mem1.0_0_0 (+ main@%_7_0_0 main@%.0.i1_0_0) main@%_18_0)) (and (not .def_99) (and (and (and (and .def_35 .def_104) .def_109) .def_111) .def_113))))) .def_119) .def_121) .def_123) .def_125) .def_127)) (and (or .def_103 (not (<= (+ main@%_7_0_0 main@%_18_0) 0))) (and (or .def_108 (not (<= (+ main@%_6_0_0 main@%_18_0) 0))) (and (not (<= main@%_3_0_0 main@%_18_0)) (and (not (= (select (store main@%shadow.mem.0_0_0 (+ main@%_6_0_0 main@%.0.i1_0_0) main@%_10_0_0) (+ main@%_6_0_0 main@%_18_0)) (select (store main@%shadow.mem1.0_0_0 (+ main@%_7_0_0 main@%.0.i1_0_0) main@%_10_0_0) (+ main@%_7_0_0 main@%_18_0)))) (and .def_127 (and .def_125 (and .def_123 (and .def_121 (and .def_119 (and .def_99 (and .def_113 (and .def_111 (and .def_109 (and .def_104 (and .def_75 (and .def_72 (and .def_69 (and .def_67 (and main@%_5_0_0 .def_60)))))))))))))))))))))))))))))))))))))))))) (state |.x.15| |.x.16| |main@%_3_1| |main@%_5_1| |main@%_6_1| |main@%_7_1| |.x.17| |main@%.0.i1_2| |main@%shadow.mem.0_2| |main@%shadow.mem1.0_2| |.xtv.1| |.xtv.2| |.xtv.3| |.xtv.4|))))
(assert (forall ((|.x.14| Int) (|@nd_int_0_0| Int) (|main@%_3_0_0| Int) (|main@%_5_0_0| Bool) (|main@%_6_0_0| Int) (|main@%_7_0_0| Int) (|@nd_0_0| Int) (|main@%.0.i1_0_0| Int) (|main@%shadow.mem.0_0_0| (Array Int Int)) (|main@%shadow.mem1.0_0_0| (Array Int Int)) (|main@%_18_0| Int) (|main@%_10_0_0| Int) (|main@%shadow.mem.1_1| (Array Int Int)) (|main@%shadow.mem1.1_1| (Array Int Int)) (|.x.16| Int) (|.x.17| Int) (|main@%.0.i1_2| Int) (|.x.15| Int) (|main@%_3_1| Int) (|main@%_7_1| Int) (|main@%_6_1| Int) (|main@%_5_1| Bool) (|main@%shadow.mem.0_2| (Array Int Int)) (|main@%shadow.mem1.0_2| (Array Int Int)) (|.xtv.1| Int) (|.xtv.2| Int) (|.xtv.3| (Array Int Int)) (|.xtv.4| (Array Int Int))) (=> (state |.x.14| |@nd_int_0_0| |main@%_3_0_0| |main@%_5_0_0| |main@%_6_0_0| |main@%_7_0_0| |@nd_0_0| |main@%.0.i1_0_0| |main@%shadow.mem.0_0_0| |main@%shadow.mem1.0_0_0| |main@%_18_0| |main@%_10_0_0| |main@%shadow.mem.1_1| |main@%shadow.mem1.1_1|) (not (= .x.14 2)))))
(check-sat)
